data;
set K:= K1 K2 K3 K4 K5 K6 K7 ;

set F:= F1 F2 ;

set Q:= Q1 Q2 ;

param T:= 45;
param V: 
	K1  K2  K3  K4  K5  K6  K7  :=
Q1	1   1   1   1   0   0   0   
Q2	0   0   0   0   1   1   1   
; # if resorce k is of type q

param TF:= 
K1 6
K2 6
K3 6
K4 6
K5 12
K6 12
K7 12
; # number of continuous time slots resource can fly

param TR:= 
K1 2
K2 2
K3 2
K4 2
K5 4
K6 4
K7 4
; #  number of continuous time slots resource k needs to rest between flights

param P:= 
K1 36
K2 36
K3 36
K4 36
K5 36
K6 36
K7 36
; #  number of continuous time slots a pilot can be present including rest times for resource k 

param N:= 
K1 4
K2 4
K3 4
K4 4
K5 2
K6 2
K7 2
; # max number of flights resource k can fly in the total time period

param A: 
	K1  K2  K3  K4  K5  K6  K7  :=
1	1   1   1   1   1   1   1   
2	1   1   1   1   1   1   1   
3	1   1   1   1   1   1   1   
4	1   1   1   1   1   1   1   
5	1   1   1   1   1   1   1   
6	1   1   1   1   1   1   1   
7	1   1   1   1   1   1   1   
8	1   1   1   1   1   1   1   
9	1   1   1   1   1   1   1   
10	1   1   1   1   1   1   1   
11	1   1   1   1   1   1   1   
12	1   1   1   1   1   1   1   
13	1   1   1   1   1   1   1   
14	1   1   1   1   1   1   1   
15	1   1   1   1   1   1   1   
16	1   1   1   1   1   1   1   
17	1   1   1   1   1   1   1   
18	1   1   1   1   1   1   1   
19	1   1   1   1   1   1   1   
20	1   1   1   1   1   1   1   
21	1   1   1   1   1   1   1   
22	1   1   1   1   1   1   1   
23	1   1   1   1   1   1   1   
24	1   1   1   1   1   1   1   
25	1   1   1   1   1   1   1   
26	1   1   1   1   1   1   1   
27	1   1   1   1   1   1   1   
28	1   1   1   1   1   1   1   
29	1   1   1   1   1   1   1   
30	1   1   1   1   1   1   1   
31	1   1   1   1   1   1   1   
32	1   1   1   1   1   1   1   
33	1   1   1   1   1   1   1   
34	1   1   1   1   1   1   1   
35	1   1   1   1   1   1   1   
36	1   1   1   1   1   1   1   
37	1   1   1   1   1   1   1   
38	1   1   1   1   1   1   1   
39	1   1   1   1   1   1   1   
40	1   1   1   1   1   1   1   
41	1   1   1   1   1   1   1   
42	1   1   1   1   1   1   1   
43	1   1   1   1   1   1   1   
44	1   1   1   1   1   1   1   
45	1   1   1   1   1   1   1   
; # availability of resorce k in time slot t

param B: 
	F1  F2  :=
Q1	0   0   
Q2	0   0   
; # if front f requires resources of type q

param U: 
	F1  F2  :=
K1	0   0   
K2	0   0   
K3	0   0   
K4	0   0   
K5	0   0   
K6	1   1   
K7	2   2   
; # transit time of resource

param C:= 
K1 900
K2 900
K3 1500
K4 4500
K5 5500
K6 5500
K7 5500
; #  water capacity of resource k

param S:= 
F1 8
F2 9
; # max number of resources that can fly at front f in the same time slot

param D:= 

[*,*,F1 ]:  K1    K2    K3    K4    K5    K6    K7    :=
1           1.62  1.62  1.62  1.29  0.97  0.97  0.97  
2           1.62  1.62  1.62  1.29  0.97  0.97  0.97  
3           1.62  1.62  1.62  1.29  0.97  0.97  0.97  
4           1.62  1.62  1.62  1.29  0.97  0.97  0.97  
5           1.62  1.62  1.62  1.29  0.97  0.97  0.97  
6           1.62  1.62  1.62  1.29  0.97  0.97  0.97  
7           1.62  1.62  1.62  1.29  0.97  0.97  0.97  
8           1.62  1.62  1.62  1.29  0.97  0.97  0.97  
9           1.62  1.62  1.62  1.29  0.97  0.97  0.97  
10          1.62  1.62  1.62  1.29  0.97  0.97  0.97  
11          1.62  1.62  1.62  1.29  0.97  0.97  0.97  
12          1.62  1.62  1.62  1.29  0.97  0.97  0.97  
13          1.62  1.62  1.62  1.29  0.97  0.97  0.97  
14          1.62  1.62  1.62  1.29  0.97  0.97  0.97  
15          1.62  1.62  1.62  1.29  0.97  0.97  0.97  
16          1.62  1.62  1.62  1.29  0.97  0.97  0.97  
17          1.62  1.62  1.62  1.29  0.97  0.97  0.97  
18          1.62  1.62  1.62  1.29  0.97  0.97  0.97  
19          1.62  1.62  1.62  1.29  0.97  0.97  0.97  
20          1.62  1.62  1.62  1.29  0.97  0.97  0.97  
21          1.62  1.62  1.62  1.29  0.97  0.97  0.97  
22          1.62  1.62  1.62  1.29  0.97  0.97  0.97  
23          1.62  1.62  1.62  1.29  0.97  0.97  0.97  
24          1.62  1.62  1.62  1.29  0.97  0.97  0.97  
25          1.54  1.54  1.54  1.23  0.92  0.92  0.92  
26          1.54  1.54  1.54  1.23  0.92  0.92  0.92  
27          1.54  1.54  1.54  1.23  0.92  0.92  0.92  
28          1.54  1.54  1.54  1.23  0.92  0.92  0.92  
29          1.54  1.54  1.54  1.23  0.92  0.92  0.92  
30          1.54  1.54  1.54  1.23  0.92  0.92  0.92  
31          1.54  1.54  1.54  1.23  0.92  0.92  0.92  
32          1.54  1.54  1.54  1.23  0.92  0.92  0.92  
33          1.54  1.54  1.54  1.23  0.92  0.92  0.92  
34          1.62  1.62  1.62  1.29  0.97  0.97  0.97  
35          1.62  1.62  1.62  1.29  0.97  0.97  0.97  
36          1.62  1.62  1.62  1.29  0.97  0.97  0.97  
37          1.62  1.62  1.62  1.29  0.97  0.97  0.97  
38          1.62  1.62  1.62  1.29  0.97  0.97  0.97  
39          1.62  1.62  1.62  1.29  0.97  0.97  0.97  
40          1.62  1.62  1.62  1.29  0.97  0.97  0.97  
41          1.62  1.62  1.62  1.29  0.97  0.97  0.97  
42          1.62  1.62  1.62  1.29  0.97  0.97  0.97  
43          1.62  1.62  1.62  1.29  0.97  0.97  0.97  
44          1.62  1.62  1.62  1.29  0.97  0.97  0.97  
45          1.62  1.62  1.62  1.29  0.97  0.97  0.97  

[*,*,F2 ]:  K1    K2    K3    K4    K5    K6    K7    :=
1           1.62  1.62  1.62  1.29  0.97  0.97  0.97  
2           1.62  1.62  1.62  1.29  0.97  0.97  0.97  
3           1.62  1.62  1.62  1.29  0.97  0.97  0.97  
4           1.62  1.62  1.62  1.29  0.97  0.97  0.97  
5           1.62  1.62  1.62  1.29  0.97  0.97  0.97  
6           1.62  1.62  1.62  1.29  0.97  0.97  0.97  
7           1.62  1.62  1.62  1.29  0.97  0.97  0.97  
8           1.62  1.62  1.62  1.29  0.97  0.97  0.97  
9           1.62  1.62  1.62  1.29  0.97  0.97  0.97  
10          1.62  1.62  1.62  1.29  0.97  0.97  0.97  
11          1.62  1.62  1.62  1.29  0.97  0.97  0.97  
12          1.62  1.62  1.62  1.29  0.97  0.97  0.97  
13          1.62  1.62  1.62  1.29  0.97  0.97  0.97  
14          1.62  1.62  1.62  1.29  0.97  0.97  0.97  
15          1.62  1.62  1.62  1.29  0.97  0.97  0.97  
16          1.62  1.62  1.62  1.29  0.97  0.97  0.97  
17          1.62  1.62  1.62  1.29  0.97  0.97  0.97  
18          1.62  1.62  1.62  1.29  0.97  0.97  0.97  
19          1.62  1.62  1.62  1.29  0.97  0.97  0.97  
20          1.62  1.62  1.62  1.29  0.97  0.97  0.97  
21          1.62  1.62  1.62  1.29  0.97  0.97  0.97  
22          1.62  1.62  1.62  1.29  0.97  0.97  0.97  
23          1.62  1.62  1.62  1.29  0.97  0.97  0.97  
24          1.62  1.62  1.62  1.29  0.97  0.97  0.97  
25          1.54  1.54  1.54  1.23  0.92  0.92  0.92  
26          1.54  1.54  1.54  1.23  0.92  0.92  0.92  
27          1.54  1.54  1.54  1.23  0.92  0.92  0.92  
28          1.54  1.54  1.54  1.23  0.92  0.92  0.92  
29          1.54  1.54  1.54  1.23  0.92  0.92  0.92  
30          1.54  1.54  1.54  1.23  0.92  0.92  0.92  
31          1.54  1.54  1.54  1.23  0.92  0.92  0.92  
32          1.54  1.54  1.54  1.23  0.92  0.92  0.92  
33          1.54  1.54  1.54  1.23  0.92  0.92  0.92  
34          1.62  1.62  1.62  1.29  0.97  0.97  0.97  
35          1.62  1.62  1.62  1.29  0.97  0.97  0.97  
36          1.62  1.62  1.62  1.29  0.97  0.97  0.97  
37          1.62  1.62  1.62  1.29  0.97  0.97  0.97  
38          1.62  1.62  1.62  1.29  0.97  0.97  0.97  
39          1.62  1.62  1.62  1.29  0.97  0.97  0.97  
40          1.62  1.62  1.62  1.29  0.97  0.97  0.97  
41          1.62  1.62  1.62  1.29  0.97  0.97  0.97  
42          1.62  1.62  1.62  1.29  0.97  0.97  0.97  
43          1.62  1.62  1.62  1.29  0.97  0.97  0.97  
44          1.62  1.62  1.62  1.29  0.97  0.97  0.97  
45          1.62  1.62  1.62  1.29  0.97  0.97  0.97  
; # downloads resource k can do at front f in time t if intermediate time slot

param E:= 

[*,*,F1 ]:  K1    K2    K3    K4    K5    K6    K7    :=
1           0.60  0.65  0.55  0.48  0.13  0.36  0.21  
2           0.60  0.65  0.55  0.48  0.13  0.36  0.21  
3           0.60  0.65  0.55  0.48  0.13  0.36  0.21  
4           0.60  0.65  0.55  0.48  0.13  0.36  0.21  
5           0.60  0.65  0.55  0.48  0.13  0.36  0.21  
6           0.60  0.65  0.55  0.48  0.13  0.36  0.21  
7           0.60  0.65  0.55  0.48  0.13  0.36  0.21  
8           0.60  0.65  0.55  0.48  0.13  0.36  0.21  
9           0.60  0.65  0.55  0.48  0.13  0.36  0.21  
10          0.60  0.65  0.55  0.48  0.13  0.36  0.21  
11          0.60  0.65  0.55  0.48  0.13  0.36  0.21  
12          0.60  0.65  0.55  0.48  0.13  0.36  0.21  
13          0.60  0.65  0.55  0.48  0.13  0.36  0.21  
14          0.60  0.65  0.55  0.48  0.13  0.36  0.21  
15          0.60  0.65  0.55  0.48  0.13  0.36  0.21  
16          0.60  0.65  0.55  0.48  0.13  0.36  0.21  
17          0.60  0.65  0.55  0.48  0.13  0.36  0.21  
18          0.60  0.65  0.55  0.48  0.13  0.36  0.21  
19          0.60  0.65  0.55  0.48  0.13  0.36  0.21  
20          0.60  0.65  0.55  0.48  0.13  0.36  0.21  
21          0.60  0.65  0.55  0.48  0.13  0.36  0.21  
22          0.60  0.65  0.55  0.48  0.13  0.36  0.21  
23          0.60  0.65  0.55  0.48  0.13  0.36  0.21  
24          0.60  0.65  0.55  0.48  0.13  0.36  0.21  
25          0.57  0.62  0.52  0.45  0.12  0.34  0.20  
26          0.57  0.62  0.52  0.45  0.12  0.34  0.20  
27          0.57  0.62  0.52  0.45  0.12  0.34  0.20  
28          0.57  0.62  0.52  0.45  0.12  0.34  0.20  
29          0.57  0.62  0.52  0.45  0.12  0.34  0.20  
30          0.57  0.62  0.52  0.45  0.12  0.34  0.20  
31          0.57  0.62  0.52  0.45  0.12  0.34  0.20  
32          0.57  0.62  0.52  0.45  0.12  0.34  0.20  
33          0.57  0.62  0.52  0.45  0.12  0.34  0.20  
34          0.60  0.65  0.55  0.48  0.13  0.36  0.21  
35          0.60  0.65  0.55  0.48  0.13  0.36  0.21  
36          0.60  0.65  0.55  0.48  0.13  0.36  0.21  
37          0.60  0.65  0.55  0.48  0.13  0.36  0.21  
38          0.60  0.65  0.55  0.48  0.13  0.36  0.21  
39          0.60  0.65  0.55  0.48  0.13  0.36  0.21  
40          0.60  0.65  0.55  0.48  0.13  0.36  0.21  
41          0.60  0.65  0.55  0.48  0.13  0.36  0.21  
42          0.60  0.65  0.55  0.48  0.13  0.36  0.21  
43          0.60  0.65  0.55  0.48  0.13  0.36  0.21  
44          0.60  0.65  0.55  0.48  0.13  0.36  0.21  
45          0.60  0.65  0.55  0.48  0.13  0.36  0.21  

[*,*,F2 ]:  K1    K2    K3    K4    K5    K6    K7    :=
1           0.58  0.70  0.58  0.55  0.08  0.32  0.18  
2           0.58  0.70  0.58  0.55  0.08  0.32  0.18  
3           0.58  0.70  0.58  0.55  0.08  0.32  0.18  
4           0.58  0.70  0.58  0.55  0.08  0.32  0.18  
5           0.58  0.70  0.58  0.55  0.08  0.32  0.18  
6           0.58  0.70  0.58  0.55  0.08  0.32  0.18  
7           0.58  0.70  0.58  0.55  0.08  0.32  0.18  
8           0.58  0.70  0.58  0.55  0.08  0.32  0.18  
9           0.58  0.70  0.58  0.55  0.08  0.32  0.18  
10          0.58  0.70  0.58  0.55  0.08  0.32  0.18  
11          0.58  0.70  0.58  0.55  0.08  0.32  0.18  
12          0.58  0.70  0.58  0.55  0.08  0.32  0.18  
13          0.58  0.70  0.58  0.55  0.08  0.32  0.18  
14          0.58  0.70  0.58  0.55  0.08  0.32  0.18  
15          0.58  0.70  0.58  0.55  0.08  0.32  0.18  
16          0.58  0.70  0.58  0.55  0.08  0.32  0.18  
17          0.58  0.70  0.58  0.55  0.08  0.32  0.18  
18          0.58  0.70  0.58  0.55  0.08  0.32  0.18  
19          0.58  0.70  0.58  0.55  0.08  0.32  0.18  
20          0.58  0.70  0.58  0.55  0.08  0.32  0.18  
21          0.58  0.70  0.58  0.55  0.08  0.32  0.18  
22          0.58  0.70  0.58  0.55  0.08  0.32  0.18  
23          0.58  0.70  0.58  0.55  0.08  0.32  0.18  
24          0.58  0.70  0.58  0.55  0.08  0.32  0.18  
25          0.55  0.66  0.55  0.53  0.07  0.30  0.18  
26          0.55  0.66  0.55  0.53  0.07  0.30  0.18  
27          0.55  0.66  0.55  0.53  0.07  0.30  0.18  
28          0.55  0.66  0.55  0.53  0.07  0.30  0.18  
29          0.55  0.66  0.55  0.53  0.07  0.30  0.18  
30          0.55  0.66  0.55  0.53  0.07  0.30  0.18  
31          0.55  0.66  0.55  0.53  0.07  0.30  0.18  
32          0.55  0.66  0.55  0.53  0.07  0.30  0.18  
33          0.55  0.66  0.55  0.53  0.07  0.30  0.18  
34          0.58  0.70  0.58  0.55  0.08  0.32  0.18  
35          0.58  0.70  0.58  0.55  0.08  0.32  0.18  
36          0.58  0.70  0.58  0.55  0.08  0.32  0.18  
37          0.58  0.70  0.58  0.55  0.08  0.32  0.18  
38          0.58  0.70  0.58  0.55  0.08  0.32  0.18  
39          0.58  0.70  0.58  0.55  0.08  0.32  0.18  
40          0.58  0.70  0.58  0.55  0.08  0.32  0.18  
41          0.58  0.70  0.58  0.55  0.08  0.32  0.18  
42          0.58  0.70  0.58  0.55  0.08  0.32  0.18  
43          0.58  0.70  0.58  0.55  0.08  0.32  0.18  
44          0.58  0.70  0.58  0.55  0.08  0.32  0.18  
45          0.58  0.70  0.58  0.55  0.08  0.32  0.18  
; # downloads resource k can do at front f in time t if starting or ending flight

param W: 
	F1        F2        :=
1	388.33    209.10    
2	1475.66   794.59    
3	1475.66   794.59    
4	1475.66   794.59    
5	1475.66   794.59    
6	1475.66   794.59    
7	1475.66   794.59    
8	1475.66   794.59    
9	1475.66   794.59    
10	1475.66   794.59    
11	1475.66   794.59    
12	1475.66   794.59    
13	1475.66   794.59    
14	1475.66   794.59    
15	1475.66   794.59    
16	1475.66   794.59    
17	1475.66   794.59    
18	1475.66   794.59    
19	1708.66   920.05    
20	1708.66   920.05    
21	1708.66   920.05    
22	1708.66   920.05    
23	1708.66   920.05    
24	1708.66   920.05    
25	1708.66   920.05    
26	1708.66   920.05    
27	1708.66   920.05    
28	1708.66   920.05    
29	1708.66   920.05    
30	1708.66   920.05    
31	1708.66   920.05    
32	1708.66   920.05    
33	1708.66   920.05    
34	1708.66   920.05    
35	1475.66   794.59    
36	1475.66   794.59    
37	1475.66   794.59    
38	1475.66   794.59    
39	1475.66   794.59    
40	1475.66   794.59    
41	1475.66   794.59    
42	1475.66   794.59    
43	1475.66   794.59    
44	1475.66   794.59    
45	388.33    209.10    
; # water needed at front f in time slot t

param M := 100000000; 

param a1:= 10000000;

param a2:= 100;

param a3:= 0.0001;
